Maximize
  x_automatic_machine + x_manual_machine
Subject To
  c1: x_manual_machine - 2.0 x_automatic_machine >= 0
  c2: x_automatic_machine >= 20
  c3: 10 x_automatic_machine + 15 x_manual_machine <= 20000
End